\ LP format - for model browsing. Use MPS format to capture full model detail.
Maximize
  10 x_1 + 5 x_2 + 4 x_3 + 2 x_4 + 3 x_5 + 5 x_6 + 9 x_7 + 10 x_8 + x_9
   + 3 x_10
Subject To
 C_1: 4 x_1 + x_2 + 7 x_5 + 2 x_6 + 7 x_7 + 10 x_9 + 6 x_10 <= 18
 C_2: 8 x_2 + 6 x_3 + 7 x_6 + 10 x_10 <= 15
 C_3: 7 x_3 + 2 x_4 + 2 x_5 <= 5
 C_4: x_4 + 4 x_7 <= 2
 C_5: 9 x_2 + 7 x_3 + 7 x_4 + x_5 + 3 x_6 + 4 x_8 + 3 x_9 <= 17
 C_6: 2 x_1 + 8 x_2 + 2 x_3 + 8 x_6 + 4 x_7 + x_8 + 5 x_9 + 10 x_10 <= 20
 C_7: 6 x_2 + 8 x_4 + 8 x_9 + 7 x_10 <= 14
 C_8: x_1 + 4 x_3 + x_4 + 10 x_5 + 6 x_6 + 5 x_8 <= 13
 C_9: 10 x_2 + 10 x_3 + 10 x_4 + x_7 + 7 x_9 <= 19
 C_10: 9 x_1 + 2 x_2 + 5 x_3 + 4 x_5 + 5 x_8 + 6 x_10 <= 15
Bounds
Binaries
 x_1 x_2 x_3 x_4 x_5 x_6 x_7 x_8 x_9 x_10
End
